4
28
0 28 26 40 21 73 72 74 56 4 39 25 55 54 24 29 68 80 12 76 77 3 79 33 81 78 34 35
27
0 89 6 96 99 59 93 85 61 17 84 5 60 18 83 45 46 8 82 62 88 31 69 1 50 51 9
28
0 53 58 13 94 95 87 97 92 98 37 100 91 16 86 38 44 14 42 43 15 57 2 41 22 75 23 67
21
0 27 52 7 48 47 36 49 64 19 11 63 90 32 10 70 30 20 66 71 65
